DIMACS_lns/graph-1000-66.col
p edge 1000 1849
e 2 441
e 2 730
e 2 148
e 2 647
e 2 323
e 3 483
e 3 300
e 3 512
e 3 696
e 4 49
e 4 524
e 4 308
e 4 302
e 4 898
e 6 323
e 6 991
e 6 288
e 6 864
e 6 121
e 7 218
e 7 316
e 7 505
e 7 945
e 7 881
e 7 399
e 8 595
e 8 925
e 8 800
e 8 228
e 8 840
e 8 173
e 9 427
e 9 313
e 9 301
e 10 646
e 10 227
e 10 825
e 10 400
e 11 179
e 11 988
e 11 95
e 12 899
e 12 332
e 12 33
e 12 431
e 12 744
e 12 489
e 12 271
e 16 100
e 16 510
e 16 243
e 16 900
e 17 655
e 17 379
e 17 743
e 17 564
e 17 703
e 17 857
e 18 568
e 18 636
e 18 431
e 18 628
e 18 397
e 19 830
e 19 922
e 19 617
e 19 346
e 19 758
e 19 971
e 19 738
e 20 168
e 20 711
e 20 981
e 21 845
e 21 600
e 21 531
e 21 54
e 21 345
e 22 861
e 22 231
e 22 743
e 22 934
e 23 459
e 23 974
e 23 316
e 23 565
e 23 381
e 24 55
e 24 838
e 24 161
e 25 916
e 25 205
e 25 843
e 25 346
e 25 567
e 25 984
e 25 453
e 26 830
e 26 566
e 26 179
e 26 107
e 26 832
e 26 909
e 26 44
e 26 599
e 26 249
e 26 71
e 26 355
e 27 499
e 27 213
e 27 473
e 27 549
e 27 767
e 29 328
e 29 307
e 29 377
e 29 913
e 29 560
e 30 566
e 30 413
e 30 841
e 30 306
e 30 274
e 30 977
e 30 442
e 31 908
e 31 844
e 31 956
e 31 443
e 31 507
e 32 618
e 32 99
e 32 693
e 32 506
e 33 643
e 33 907
e 34 124
e 34 117
e 34 330
e 34 452
e 34 121
e 34 944
e 34 703
e 37 713
e 37 301
e 37 938
e 37 835
e 39 77
e 39 397
e 39 96
e 39 994
e 40 149
e 40 80
e 40 360
e 40 110
e 40 502
e 40 465
e 41 135
e 41 67
e 41 868
e 41 876
e 41 328
e 41 781
e 41 476
e 42 161
e 42 392
e 42 468
e 42 740
e 42 815
e 44 907
e 44 190
e 46 147
e 46 483
e 46 180
e 46 359
e 46 711
e 46 110
e 47 907
e 47 734
e 47 621
e 48 748
e 48 150
e 48 630
e 48 253
e 48 557
e 48 603
e 48 895
e 49 478
e 49 376
e 49 212
e 50 226
e 50 625
e 50 884
e 50 757
e 51 144
e 51 113
e 51 265
e 51 881
e 52 913
e 52 608
e 52 451
e 52 207
e 52 222
e 53 101
e 53 254
e 53 829
e 53 766
e 54 249
e 54 542
e 54 254
e 54 408
e 54 854
e 55 647
e 55 909
e 55 639
e 55 870
e 55 199
e 55 736
e 56 506
e 56 448
e 56 271
e 56 953
e 56 399
e 57 666
e 57 574
e 57 817
e 57 792
e 59 530
e 59 271
e 59 186
e 59 589
e 59 632
e 59 129
e 61 712
e 61 799
e 61 368
e 62 169
e 62 542
e 62 866
e 63 248
e 63 481
e 63 671
e 63 621
e 65 424
e 65 744
e 65 543
e 65 910
e 65 515
e 67 277
e 67 778
e 67 516
e 67 408
e 68 138
e 68 763
e 68 648
e 68 613
e 69 819
e 69 736
e 69 507
e 69 378
e 69 953
e 70 862
e 70 686
e 70 256
e 71 473
e 71 978
e 71 235
e 71 653
e 76 490
e 76 868
e 76 538
e 77 584
e 77 639
e 77 672
e 78 413
e 78 958
e 78 359
e 78 977
e 78 927
e 78 270
e 79 897
e 79 338
e 79 179
e 80 531
e 80 543
e 80 974
e 80 329
e 80 245
e 80 228
e 81 389
e 81 606
e 81 803
e 82 813
e 82 616
e 82 307
e 82 503
e 82 83
e 82 748
e 82 484
e 82 516
e 83 938
e 83 969
e 83 745
e 83 660
e 84 305
e 84 910
e 84 504
e 85 653
e 85 607
e 85 230
e 87 492
e 87 804
e 87 940
e 87 329
e 91 410
e 91 580
e 91 363
e 91 439
e 92 675
e 92 529
e 92 218
e 93 171
e 93 877
e 93 639
e 93 706
e 93 294
e 94 633
e 94 936
e 94 566
e 94 960
e 95 860
e 95 376
e 95 589
e 96 247
e 96 282
e 96 283
e 96 558
e 96 502
e 96 437
e 96 262
e 99 353
e 99 711
e 100 188
e 100 555
e 101 647
e 101 815
e 101 819
e 105 178
e 105 117
e 105 745
e 105 763
e 107 329
e 107 956
e 109 272
e 109 317
e 109 114
e 109 782
e 110 668
e 110 188
e 110 360
e 110 447
e 110 283
e 111 784
e 111 976
e 111 573
e 111 349
e 111 736
e 112 565
e 112 686
e 112 327
e 112 704
e 112 632
e 112 784
e 113 646
e 113 427
e 113 918
e 114 894
e 114 205
e 114 380
e 114 940
e 115 279
e 115 235
e 115 145
e 115 143
e 115 781
e 115 454
e 115 827
e 116 247
e 116 532
e 116 774
e 117 627
e 117 274
e 117 232
e 117 628
e 117 802
e 117 288
e 117 479
e 117 176
e 117 767
e 120 361
e 120 394
e 120 488
e 120 248
e 120 448
e 121 520
e 121 702
e 122 917
e 122 352
e 122 897
e 122 734
e 122 181
e 123 773
e 123 887
e 123 164
e 124 583
e 124 639
e 124 373
e 124 803
e 127 857
e 127 551
e 127 196
e 128 603
e 128 552
e 128 620
e 128 372
e 128 760
e 128 442
e 128 609
e 129 363
e 129 615
e 129 590
e 129 389
e 129 296
e 130 601
e 130 336
e 130 722
e 130 704
e 132 242
e 132 286
e 132 328
e 132 641
e 133 399
e 133 351
e 133 855
e 133 543
e 134 263
e 134 979
e 134 229
e 134 953
e 134 965
e 134 377
e 135 363
e 135 764
e 135 530
e 135 988
e 137 888
e 137 301
e 137 781
e 138 517
e 138 399
e 138 177
e 140 688
e 140 151
e 140 757
e 140 152
e 140 843
e 141 559
e 141 671
e 141 668
e 142 816
e 142 840
e 142 295
e 142 936
e 143 169
e 143 431
e 144 985
e 144 199
e 144 817
e 145 752
e 145 981
e 145 530
e 146 895
e 146 810
e 146 280
e 146 204
e 146 920
e 146 390
e 146 345
e 146 722
e 146 616
e 147 437
e 147 755
e 148 580
e 148 508
e 148 542
e 149 399
e 149 281
e 150 417
e 150 372
e 150 749
e 151 596
e 151 413
e 152 165
e 152 628
e 152 367
e 152 889
e 152 802
e 152 836
e 152 601
e 153 828
e 153 218
e 153 273
e 153 297
e 153 702
e 153 899
e 153 245
e 153 640
e 154 906
e 154 996
e 154 620
e 154 750
e 154 523
e 156 820
e 156 303
e 156 910
e 158 939
e 158 297
e 158 884
e 161 714
e 161 903
e 161 259
e 161 706
e 162 819
e 162 910
e 162 474
e 162 547
e 162 167
e 164 297
e 164 810
e 164 681
e 164 565
e 164 613
e 164 330
e 165 457
e 165 653
e 165 965
e 165 466
e 165 273
e 166 670
e 166 533
e 166 659
e 166 795
e 167 500
e 167 420
e 167 287
e 168 403
e 168 843
e 168 539
e 168 930
e 168 775
e 168 380
e 169 843
e 169 638
e 169 517
e 169 356
e 169 474
e 169 567
e 170 740
e 170 971
e 170 771
e 170 826
e 171 870
e 171 693
e 172 576
e 172 775
e 172 291
e 173 802
e 173 729
e 173 542
e 173 534
e 175 548
e 175 532
e 175 886
e 175 773
e 176 529
e 176 568
e 176 449
e 176 539
e 177 763
e 177 229
e 177 519
e 177 293
e 177 595
e 178 769
e 178 573
e 178 366
e 178 607
e 178 531
e 180 484
e 180 280
e 180 250
e 180 621
e 181 804
e 181 560
e 181 459
e 185 231
e 185 609
e 185 675
e 185 968
e 186 374
e 186 246
e 187 755
e 187 998
e 187 770
e 187 758
e 187 591
e 187 203
e 187 786
e 187 901
e 188 635
e 188 506
e 188 684
e 188 295
e 189 889
e 189 556
e 189 991
e 189 420
e 189 639
e 189 264
e 190 647
e 190 334
e 191 281
e 191 698
e 191 749
e 191 383
e 191 384
e 191 365
e 194 442
e 194 655
e 194 510
e 194 815
e 194 254
e 195 864
e 195 916
e 195 309
e 195 249
e 195 384
e 196 741
e 196 380
e 196 783
e 199 380
e 200 427
e 200 417
e 200 788
e 200 289
e 200 517
e 200 454
e 201 392
e 201 897
e 201 474
e 202 731
e 202 976
e 202 815
e 202 216
e 203 627
e 203 364
e 203 429
e 204 880
e 204 376
e 205 517
e 205 784
e 205 481
e 206 580
e 206 721
e 206 864
e 206 360
e 206 897
e 206 289
e 207 906
e 207 900
e 207 892
e 207 736
e 207 944
e 209 328
e 209 532
e 209 754
e 212 861
e 212 572
e 212 967
e 212 896
e 212 948
e 213 823
e 213 316
e 213 383
e 214 437
e 214 907
e 214 467
e 214 880
e 214 378
e 215 657
e 215 647
e 215 774
e 215 236
e 215 558
e 216 520
e 216 774
e 216 406
e 218 429
e 218 724
e 218 910
e 218 925
e 219 263
e 219 948
e 219 353
e 219 287
e 222 294
e 222 405
e 222 375
e 226 671
e 226 533
e 227 627
e 227 944
e 228 513
e 228 649
e 228 986
e 228 527
e 228 470
e 229 761
e 229 449
e 229 490
e 229 690
e 229 419
e 230 788
e 230 810
e 231 301
e 231 864
e 231 405
e 232 694
e 232 679
e 233 594
e 233 844
e 233 590
e 235 788
e 235 939
e 235 818
e 235 587
e 235 535
e 236 804
e 236 907
e 236 824
e 237 979
e 237 238
e 237 712
e 238 278
e 238 277
e 239 714
e 239 655
e 239 553
e 240 586
e 240 657
e 240 247
e 242 420
e 242 960
e 242 264
e 242 576
e 243 488
e 243 782
e 243 379
e 244 978
e 244 277
e 244 797
e 244 655
e 244 279
e 245 424
e 245 384
e 245 419
e 245 924
e 246 957
e 246 399
e 246 465
e 247 421
e 247 990
e 248 676
e 248 922
e 248 552
e 248 293
e 248 729
e 248 957
e 249 445
e 249 842
e 250 307
e 250 781
e 250 884
e 250 569
e 250 316
e 250 758
e 250 837
e 250 418
e 252 974
e 252 680
e 252 790
e 252 895
e 253 387
e 253 474
e 254 917
e 254 572
e 254 531
e 256 432
e 256 515
e 256 406
e 256 426
e 256 264
e 258 477
e 258 447
e 258 560
e 259 605
e 259 856
e 259 683
e 259 899
e 260 353
e 260 674
e 260 276
e 261 306
e 261 348
e 261 660
e 262 965
e 262 963
e 262 582
e 263 754
e 264 290
e 264 725
e 264 731
e 264 562
e 265 529
e 265 749
e 265 895
e 269 994
e 269 599
e 269 756
e 269 462
e 270 419
e 270 910
e 271 355
e 271 939
e 271 735
e 272 452
e 272 462
e 272 980
e 273 998
e 274 985
e 274 692
e 274 374
e 274 531
e 274 467
e 276 925
e 276 595
e 277 734
e 277 799
e 278 796
e 278 738
e 279 333
e 279 835
e 279 938
e 280 601
e 280 573
e 280 502
e 281 794
e 281 411
e 281 885
e 281 780
e 282 295
e 282 796
e 283 658
e 286 411
e 286 419
e 286 394
e 287 484
e 287 588
e 288 534
e 289 408
e 289 988
e 289 506
e 290 297
e 290 667
e 290 415
e 290 975
e 290 841
e 290 476
e 291 948
e 291 820
e 291 756
e 293 975
e 293 980
e 293 898
e 293 613
e 293 544
e 294 660
e 295 703
e 295 512
e 296 674
e 296 706
e 296 676
e 297 440
e 299 691
e 299 758
e 299 458
e 300 941
e 300 681
e 300 876
e 301 778
e 302 327
e 302 514
e 302 532
e 302 631
e 302 843
e 302 381
e 302 767
e 303 886
e 303 767
e 303 714
e 305 979
e 305 354
e 306 961
e 306 871
e 306 534
e 306 721
e 307 916
e 307 772
e 307 419
e 307 980
e 308 351
e 308 686
e 309 492
e 309 441
e 313 988
e 313 470
e 313 743
e 314 802
e 314 690
e 314 731
e 314 741
e 314 661
e 315 830
e 315 424
e 315 898
e 315 323
e 315 785
e 315 939
e 316 349
e 316 347
e 316 399
e 316 354
e 317 361
e 317 467
e 317 871
e 317 986
e 317 899
e 318 914
e 318 643
e 318 557
e 318 752
e 321 888
e 321 674
e 321 676
e 323 733
e 327 614
e 327 660
e 328 729
e 328 951
e 328 383
e 329 606
e 329 920
e 329 810
e 329 699
e 329 762
e 330 503
e 330 345
e 330 755
e 332 869
e 332 973
e 332 778
e 332 927
e 332 813
e 333 941
e 333 513
e 333 963
e 334 984
e 334 622
e 334 715
e 334 873
e 335 832
e 335 529
e 335 336
e 335 868
e 335 649
e 336 836
e 338 760
e 338 704
e 343 827
e 343 982
e 343 636
e 345 399
e 345 646
e 345 371
e 345 793
e 346 984
e 346 913
e 346 998
e 347 724
e 347 779
e 347 439
e 347 506
e 347 562
e 347 714
e 347 400
e 348 532
e 348 760
e 348 936
e 348 983
e 349 873
e 349 927
e 351 772
e 351 748
e 351 615
e 352 568
e 352 432
e 352 410
e 352 900
e 353 938
e 353 571
e 353 990
e 354 640
e 355 684
e 355 596
e 356 841
e 356 584
e 359 390
e 359 513
e 359 631
e 359 638
e 360 381
e 360 795
e 361 645
e 361 409
e 361 991
e 363 499
e 363 525
e 363 387
e 363 549
e 364 740
e 364 912
e 365 785
e 365 424
e 365 573
e 365 839
e 365 911
e 366 731
e 366 670
e 366 828
e 367 583
e 367 650
e 367 648
e 367 537
e 367 743
e 367 725
e 368 506
e 368 960
e 368 918
e 368 891
e 368 813
e 368 434
e 369 402
e 369 715
e 369 686
e 371 744
e 371 410
e 372 714
e 372 480
e 372 405
e 372 731
e 373 466
e 373 588
e 373 678
e 373 643
e 374 919
e 375 639
e 375 383
e 376 868
e 377 489
e 377 831
e 378 647
e 378 930
e 379 749
e 379 509
e 380 819
e 380 896
e 381 618
e 381 657
e 381 988
e 381 426
e 382 621
e 382 779
e 382 490
e 382 479
e 382 752
e 383 918
e 383 940
e 384 427
e 385 692
e 385 530
e 385 616
e 386 657
e 386 984
e 386 874
e 387 969
e 387 975
e 387 703
e 387 484
e 387 926
e 388 872
e 388 763
e 388 912
e 388 956
e 389 895
e 389 479
e 389 662
e 390 817
e 390 662
e 390 667
e 390 473
e 390 771
e 390 481
e 392 681
e 392 483
e 392 400
e 392 615
e 392 969
e 392 606
e 393 637
e 393 773
e 393 761
e 393 532
e 393 982
e 394 560
e 394 779
e 395 473
e 395 521
e 395 638
e 395 900
e 397 892
e 397 885
e 397 854
e 400 653
e 400 657
e 400 981
e 402 799
e 402 744
e 403 857
e 403 572
e 403 658
e 404 576
e 404 901
e 404 588
e 404 704
e 405 670
e 405 712
e 405 474
e 405 945
e 406 981
e 407 770
e 407 435
e 407 455
e 407 898
e 408 757
e 408 956
e 408 434
e 408 499
e 409 775
e 409 760
e 409 462
e 409 721
e 409 539
e 410 960
e 410 487
e 411 559
e 411 481
e 413 434
e 413 765
e 413 895
e 413 672
e 415 931
e 415 648
e 417 721
e 417 690
e 417 630
e 417 569
e 417 941
e 418 544
e 418 934
e 418 812
e 419 881
e 420 933
e 420 820
e 421 727
e 421 780
e 421 439
e 421 790
e 424 660
e 424 845
e 424 767
e 424 577
e 424 813
e 426 642
e 426 659
e 426 867
e 426 448
e 426 794
e 426 991
e 427 761
e 427 961
e 429 750
e 432 512
e 432 528
e 434 912
e 435 593
e 435 641
e 435 580
e 435 634
e 437 548
e 437 490
e 437 824
e 439 600
e 439 868
e 440 564
e 440 877
e 441 686
e 442 593
e 443 647
e 443 731
e 443 892
e 445 912
e 445 889
e 447 881
e 447 528
e 449 957
e 449 761
e 450 646
e 450 786
e 450 846
e 451 834
e 451 912
e 452 557
e 452 621
e 452 961
e 453 538
e 453 993
e 454 792
e 454 595
e 455 758
e 455 793
e 457 693
e 457 618
e 458 889
e 458 872
e 458 646
e 459 762
e 459 641
e 462 968
e 462 694
e 462 844
e 462 502
e 465 910
e 466 970
e 466 829
e 466 872
e 466 995
e 467 674
e 467 478
e 467 647
e 468 821
e 468 772
e 470 836
e 470 686
e 470 782
e 473 982
e 474 617
e 474 824
e 474 953
e 474 500
e 474 741
e 475 860
e 475 557
e 475 826
e 475 750
e 475 601
e 476 876
e 476 519
e 477 910
e 477 520
e 477 631
e 478 725
e 478 830
e 479 513
e 479 768
e 480 840
e 480 698
e 480 838
e 481 954
e 481 872
e 482 920
e 482 895
e 482 706
e 482 533
e 483 487
e 484 641
e 484 639
e 487 909
e 487 971
e 488 796
e 488 715
e 488 584
e 488 920
e 489 523
e 489 810
e 490 557
e 490 762
e 492 888
e 492 551
e 492 860
e 493 971
e 493 751
e 493 586
e 493 816
e 498 632
e 498 609
e 498 993
e 498 713
e 499 986
e 499 661
e 500 749
e 500 944
e 500 887
e 500 583
e 500 504
e 503 712
e 503 675
e 503 977
e 503 984
e 504 679
e 504 632
e 505 786
e 505 631
e 505 622
e 506 784
e 506 684
e 507 690
e 508 684
e 508 979
e 509 672
e 509 961
e 509 662
e 509 976
e 509 901
e 510 934
e 511 750
e 511 882
e 511 676
e 511 675
e 511 760
e 512 627
e 513 995
e 513 970
e 514 821
e 514 527
e 515 756
e 515 883
e 515 780
e 516 945
e 517 785
e 517 657
e 517 896
e 519 698
e 519 735
e 520 730
e 521 828
e 521 916
e 523 549
e 523 978
e 523 625
e 524 587
e 524 845
e 524 574
e 525 937
e 525 936
e 525 557
e 527 953
e 527 674
e 528 714
e 529 622
e 529 721
e 530 894
e 530 765
e 531 782
e 533 536
e 533 556
e 533 758
e 534 652
e 535 816
e 535 951
e 535 739
e 536 741
e 536 748
e 536 618
e 536 950
e 537 758
e 537 804
e 537 959
e 537 618
e 538 668
e 538 706
e 539 638
e 540 961
e 540 780
e 540 599
e 540 608
e 542 838
e 542 837
e 542 948
e 543 846
e 543 736
e 543 906
e 543 692
e 543 616
e 543 667
e 544 931
e 547 983
e 547 883
e 548 979
e 548 566
e 548 569
e 549 587
e 549 625
e 549 731
e 551 648
e 551 864
e 551 994
e 551 562
e 552 606
e 553 853
e 553 735
e 553 803
e 553 993
e 554 969
e 554 658
e 554 699
e 555 984
e 555 721
e 556 867
e 557 605
e 557 876
e 558 793
e 559 988
e 559 630
e 559 891
e 561 733
e 561 736
e 561 774
e 561 900
e 564 823
e 564 835
e 564 916
e 564 616
e 565 773
e 565 959
e 565 761
e 565 584
e 566 771
e 566 906
e 566 788
e 566 918
e 567 654
e 567 858
e 567 900
e 567 912
e 569 589
e 571 720
e 571 783
e 572 958
e 573 975
e 574 815
e 574 909
e 574 608
e 576 843
e 577 896
e 577 909
e 577 897
e 577 692
e 578 650
e 578 803
e 578 695
e 580 882
e 582 748
e 582 782
e 583 680
e 583 593
e 584 724
e 586 716
e 586 935
e 587 608
e 587 776
e 588 941
e 588 767
e 588 768
e 589 764
e 590 886
e 590 757
e 590 861
e 591 652
e 591 828
e 591 931
e 591 960
e 591 816
e 591 954
e 591 622
e 593 819
e 593 882
e 593 652
e 594 830
e 594 856
e 595 670
e 595 872
e 596 982
e 596 888
e 596 660
e 599 842
e 599 763
e 599 697
e 600 927
e 601 827
e 601 711
e 602 930
e 602 679
e 602 891
e 603 987
e 605 789
e 606 858
e 606 654
e 607 758
e 608 854
e 608 752
e 609 755
e 609 802
e 613 990
e 613 867
e 613 983
e 614 975
e 614 880
e 615 832
e 615 935
e 615 876
e 615 752
e 616 692
e 616 688
e 617 836
e 617 843
e 618 622
e 618 873
e 620 876
e 620 828
e 621 768
e 621 745
e 621 769
e 622 872
e 622 887
e 622 903
e 624 986
e 624 683
e 624 876
e 625 907
e 628 634
e 628 804
e 628 971
e 628 834
e 630 659
e 631 880
e 631 795
e 632 680
e 633 738
e 633 735
e 634 941
e 634 990
e 635 911
e 635 837
e 635 910
e 635 659
e 635 959
e 635 835
e 636 804
e 637 905
e 637 960
e 637 711
e 637 891
e 637 922
e 638 670
e 638 951
e 639 897
e 639 640
e 640 944
e 640 690
e 642 826
e 642 785
e 643 887
e 643 842
e 645 959
e 645 874
e 646 927
e 647 820
e 647 781
e 647 756
e 648 892
e 649 763
e 650 695
e 652 666
e 652 906
e 653 697
e 653 780
e 653 832
e 654 857
e 657 919
e 658 940
e 658 910
e 658 660
e 659 674
e 659 993
e 660 869
e 661 766
e 662 681
e 662 683
e 666 779
e 666 858
e 666 825
e 671 688
e 672 834
e 672 990
e 672 785
e 672 956
e 672 825
e 673 727
e 673 739
e 673 983
e 674 729
e 675 903
e 675 948
e 675 735
e 676 951
e 678 815
e 678 939
e 678 982
e 679 976
e 679 901
e 679 776
e 679 864
e 679 933
e 680 725
e 681 945
e 683 858
e 684 967
e 684 774
e 686 980
e 686 783
e 688 839
e 688 973
e 690 918
e 690 743
e 690 905
e 691 820
e 691 916
e 694 882
e 694 945
e 694 898
e 695 796
e 695 856
e 696 917
e 696 727
e 697 831
e 699 743
e 699 781
e 702 940
e 703 796
e 704 905
e 706 760
e 706 826
e 712 782
e 712 894
e 713 797
e 713 794
e 713 856
e 715 799
e 715 817
e 716 720
e 716 795
e 720 733
e 720 812
e 721 764
e 721 826
e 721 819
e 721 904
e 722 877
e 722 987
e 722 786
e 724 731
e 725 950
e 725 772
e 725 870
e 727 912
e 727 965
e 730 983
e 731 912
e 733 866
e 734 834
e 735 885
e 736 749
e 738 828
e 738 839
e 738 781
e 738 969
e 739 987
e 740 779
e 741 800
e 741 961
e 743 842
e 744 973
e 745 752
e 748 842
e 749 959
e 749 887
e 750 867
e 750 821
e 751 919
e 751 924
e 751 762
e 751 925
e 752 772
e 752 855
e 754 896
e 755 937
e 757 818
e 762 969
e 762 829
e 763 911
e 764 938
e 764 874
e 765 800
e 765 834
e 766 979
e 767 917
e 769 891
e 770 797
e 770 888
e 773 948
e 776 824
e 779 912
e 780 842
e 780 919
e 781 967
e 781 908
e 788 908
e 789 958
e 789 913
e 790 877
e 790 802
e 790 907
e 790 883
e 790 819
e 792 812
e 794 839
e 794 927
e 794 914
e 794 823
e 794 926
e 794 842
e 795 887
e 797 824
e 799 973
e 803 816
e 803 974
e 812 867
e 812 835
e 812 821
e 813 837
e 815 969
e 818 996
e 821 864
e 823 996
e 823 837
e 824 882
e 827 835
e 827 843
e 828 922
e 830 956
e 831 938
e 832 871
e 835 971
e 836 914
e 838 853
e 841 877
e 842 908
e 843 900
e 843 945
e 844 924
e 846 870
e 853 991
e 853 919
e 855 980
e 855 970
e 856 870
e 860 918
e 862 895
e 862 868
e 866 901
e 869 927
e 869 988
e 870 956
e 870 938
e 872 926
e 874 969
e 877 968
e 880 933
e 882 950
e 882 907
e 884 906
e 886 901
e 899 974
e 899 975
e 904 911
e 904 935
e 908 913
e 911 919
e 912 982
e 917 948
e 919 991
e 924 936
e 935 967
e 937 944
e 938 979
e 954 995
e 960 991
e 963 995
e 974 985
